c   #vars: 35   #clauses: 162   #literals: 490
c 
p cnf 35 162
-2 -3 0
-4 -5 0
-6 -7 0
1 -28 33 34 0
-4 -5 -12 33 34 0
-4 17 27 28 0
-10 -11 0
-12 -13 0
1 -20 33 34 0
18 27 28 -35 0
-14 -15 0
9 27 28 -31 0
2 3 18 -35 0
12 13 -18 35 0
-19 -20 0
-21 -22 0
-23 -24 0
6 7 16 -25 0
-25 -26 0
-27 -28 0
14 15 29 30 0
-29 -30 0
-31 -32 0
-33 -34 0
8 14 15 -29 0
-2 -13 18 35 0
6 7 27 28 0
1 -22 27 28 0
-1 -19 0
-1 -21 0
-1 -27 0
4 5 31 32 0
-1 -33 0
1 19 20 -34 0
-13 18 -27 35 0
2 3 17 -27 0
4 5 17 -27 0
-2 -12 0
-3 -13 0
2 3 18 -27 0
-3 -17 0
-5 18 -27 35 0
-5 12 13 35 0
-3 -18 0
-12 -13 16 -25 0
-2 -33 0
-3 -34 0
6 7 14 15 0
-4 -12 0
-5 -13 0
14 15 33 34 0
8 -14 23 24 0
-5 -17 0
1 21 22 -28 0
1 27 28 -34 0
-4 -25 0
-5 -26 0
-2 4 5 17 0
-4 -31 0
-5 -32 0
-4 -35 0
8 14 15 -23 0
14 15 23 24 0
-6 -14 0
-7 -15 0
9 -25 27 28 0
-7 -16 0
4 5 12 13 0
-6 -19 0
-7 -20 0
21 22 27 28 0
-6 -25 0
-7 -26 0
2 3 12 13 0
-6 -27 0
-7 -28 0
4 5 -12 -33 -34 0
-6 -29 0
-7 -30 0
4 5 25 26 0
-2 18 27 28 0
19 20 23 24 0
9 25 26 -31 0
1 21 22 -34 0
9 -25 31 32 0
12 13 33 34 0
10 11 31 32 0
6 7 29 30 0
-2 -5 18 35 0
1 19 20 -22 0
-5 -12 -13 -33 0
-8 -15 0
-4 -5 -12 -13 0
-8 -24 0
-6 -12 -13 16 0
-4 -5 33 34 0
-8 -30 0
1 19 20 -28 0
2 3 -4 17 0
-2 17 27 28 0
-9 -26 0
4 5 -33 -34 0
-9 -28 0
10 11 19 20 0
-4 -12 -13 -34 0
-9 -32 0
16 -25 31 32 0
-10 -19 0
-11 -20 0
10 11 33 34 0
-10 -23 0
-11 -24 0
-6 16 31 32 0
-10 -31 0
-11 -32 0
-10 -33 0
-11 -34 0
16 25 26 -31 0
-12 -33 0
-13 -34 0
-12 -35 0
8 -23 29 30 0
21 22 23 24 0
-14 -23 0
-15 -24 0
6 7 16 -31 0
-14 -29 0
-15 -30 0
10 11 23 24 0
-14 -33 0
-15 -34 0
6 7 19 20 0
-6 16 25 26 0
-12 -13 16 -31 0
9 -27 31 32 0
-16 -26 0
1 -20 27 28 0
9 25 26 -27 0
-16 -32 0
-12 -13 -33 -34 0
8 23 24 -29 0
-17 -28 0
19 20 29 30 0
4 5 -18 35 0
-18 -28 0
6 7 25 26 0
4 5 -13 35 0
8 -14 29 30 0
21 22 31 32 0
-19 -23 0
-20 -24 0
-19 -29 0
-20 -30 0
1 -20 21 22 0
1 -22 33 34 0
-21 -23 0
-22 -24 0
-21 -27 0
-22 -28 0
2 3 33 34 0
-21 -31 0
-22 -32 0
